units metal
atom_style atomic
read_data POSCAR-001.lmp


pair_style eam/fs
pair_coeff * * Au-Cu_eam.fs.eam.fs Cu Au


dump phonopy all custom 1 force.01 id type x y z fx fy fz
# dump_modify phonopy format line "%d %d %15.8f %15.8f %15.8f %15.8f %15.8f %15.8f"

run 0