# Fcc Au oriented X=[100], Y=[010], Z=[001].
1.000000
      4.07800000        0.00000000        0.00000000
      0.00000000        4.07800000        0.00000000
      0.00000000        0.00000000        4.07800000
 Au  Cu
     2       2
Cartesian
      0.00000000        0.00000000        0.00000000
      2.03900000        2.03900000        0.00000000
      0.00000000        2.03900000        2.03900000
      2.03900000        0.00000000        2.03900000
